&CONTROL
  calculation = 'scf'
  outdir = 'tmp_##NUMBER##'
  prefix = 'LiF'
  pseudo_dir = './'
  tprnfor = .true.
  tstress = .true.
/
&SYSTEM
  ecutwfc = 100
  ibrav = 0
  nat = ##NATOMS##
  ntyp = 2
/
&ELECTRONS
  conv_thr =   1.0000000000d-16
/
ATOMIC_SPECIES
F    18.9984032  f_lda_v1.4.uspp.F.UPF
Li   6.941       li_lda_v1.4.uspp.F.UPF       
##COORDINATES## 
K_POINTS gamma
##CELL##
```