&CONTROL
  calculation = 'scf'
  outdir = './'
  prefix = 'NaCl'
  pseudo_dir = './'
  tprnfor = .true.
  tstress = .true.
/
&SYSTEM
  ecutwfc = 100
  ibrav = 2
  celldm(1) = 10.3429915367
  nat = 2
  ntyp = 2
/
&ELECTRONS
  conv_thr =   1.0000000000d-16
/
ATOMIC_SPECIES
Na     22.989769     na_lda_v1.5.uspp.F.UPF
Cl     35.453        cl_lda_v1.4.uspp.F.UPF
ATOMIC_POSITIONS crystal
Na     0.0000000000       0.0000000000       0.0000000000 
Cl     0.5000000000       0.5000000000       0.5000000000 
K_POINTS automatic
14 14 14 0 0 0
