&CONTROL
  calculation = 'scf'
  prefix = 'MoSe2'
  pseudo_dir = './'
  tprnfor = .true.
  tstress = .true.
/
&SYSTEM
  ecutwfc =   110
  ecutrho = 1100
  ibrav = 0
  nat = 3
  ntyp = 2
  occupations = 'fixed'
  smearing = 'cold'
  degauss     =  1.00000e-02
/
&ELECTRONS
  conv_thr =   1.0d-15
/
ATOMIC_SPECIES
Mo      95.95   mo_pbe_v1.uspp.F.UPF
Se      78.96  se_pbe_v1.uspp.F.UPF
ATOMIC_POSITIONS (crystal)
Mo            0.3333333300        0.6666666700        0.2500000000
Se            0.6666666700        0.3333333300        0.3316040836
Se            0.6666666700        0.3333333300        0.1683959164
K_POINTS automatic
20 20 1 0 0 0
CELL_PARAMETERS (angstrom)
   3.318370676   0.000000000   0.000000000
  -1.659185339   2.873793306   0.000000000
   0.000000000   0.000000000  20.451080113