phonon calculation.
&inputph
  prefix = 'MoSe2'
  tr2_ph = 1.0d-18
  alpha_mix(1)=0.3
  ldisp = .true.  
  recover=.true.
  epsil=.true.
  nq1 = 4, nq2 = 4, nq3 = 4
  fildyn = 'MoSe2.dyn'
/