  &input
  fildyn = 'MoSe2.dyn'
  zasr = 'simple'
  flfrc = 'espresso.ifc2'
/