&control
  calculation='scf',
  prefix='NaH',
  pseudo_dir = './',
  outdir='./',
  tprnfor = .true.
  tstress = .true.
/
&system
  ecutwfc = 100
  ibrav = 2
  celldm(1)=9.14245
  nat = 2
  ntyp = 2
/
&electrons
  conv_thr = 1.0000000000d-16
/
ATOMIC_SPECIES
Na  22.989   na_pbe_v1.5.uspp.F.UPF   
H   1.00794  h_pbe_v1.4.uspp.F.UPF         
ATOMIC_POSITIONS {crystal}
Na 0.0000 0.0000 0.0000
H  0.5000 0.5000 0.5000
K_POINTS {AUTOMATIC}
14 14 14 0 0 0
