  &input
  fildyn = 'MoSe2.dyn'
  zasr = 'simple'
  flfrc = 'mat2R'
/