  &input
  fildyn = 'graphite.dyn'
  zasr = 'crystal'
  flfrc = 'espresso.ifc2'
/
