  &input
  fildyn = 'MoS2.dyn'
  zasr = 'simple'
  flfrc = 'mat2R'
/