phonon calculation.
&inputph
  prefix = 'MoS2'
  tr2_ph = 1.0d-18
  ldisp = .true.  
  recover=.true.
  epsil=.true.
  nq1 = 8, nq2 = 8, nq3 = 1
  fildyn = 'MoS2.dyn'
/