  &input
  fildyn = 'KF.dyn'
  zasr = 'crystal'
  flfrc = 'espresso.ifc2'
/