  &input
  fildyn = 'MoS2.dyn'
  zasr = 'crystal'
  flfrc = 'espresso.ifc2'
/