&CONTROL
  calculation = 'scf'
  prefix = 'MoS2'
  pseudo_dir = './'
  tprnfor = .true.
  tstress = .true.
/
&SYSTEM
  ecutwfc =   100
  ibrav = 0
  nat = 6
  ntyp = 2
  occupations = 'fixed'
  smearing = 'cold'
  degauss     =  1.00000e-02
/
&ELECTRONS
  conv_thr =   1.0d-14
/
ATOMIC_SPECIES
Mo     95.95  mo_pbe_v1.uspp.F.UPF
S      32.065 s_pbe_v1.4.uspp.F.UPF
ATOMIC_POSITIONS (crystal)
Mo            0.6666666700        0.3333333300        0.2500000000
Mo            0.3333333300        0.6666666700        0.7500000000
S             0.6666666700        0.3333333300        0.6434813081
S             0.3333333300        0.6666666700        0.3565186919
S             0.6666666700        0.3333333300        0.8565186919
S             0.3333333300        0.6666666700        0.1434813081
K_POINTS automatic
16 16 16 0 0 0
CELL_PARAMETERS (angstrom)
   3.183599501   0.000000000   0.000000000
  -1.591799750   2.757078043   0.000000000
   0.000000000   0.000000000  14.666092767