&CONTROL
  calculation = 'scf'
  outdir = 'tmp_##NUMBER##'
  prefix = 'NaF'
  pseudo_dir = './'
  tprnfor = .true.
  tstress = .true.
/
&SYSTEM
  ecutwfc = 100
  ibrav = 0
  nat = ##NATOMS##
  ntyp = 2
/
&ELECTRONS
  conv_thr = 1.0000000000d-16
/
ATOMIC_SPECIES
Na 22.989   na_pbe_v1.5.uspp.F.UPF   
F  18.998   f_pbe_v1.4.uspp.F.UPF    
##COORDINATES## 
K_POINTS gamma
##CELL##
```