&CONTROL
  calculation = 'scf'
  prefix = 'MoSe2'
  pseudo_dir = './'
  tprnfor = .true.
  tstress = .true.
/
&SYSTEM
  ecutwfc =   150
  ibrav = 0
  nat = 3
  ntyp = 2
  occupations = 'fixed'
  smearing = 'cold'
  degauss     =  1.00000e-02
/
&ELECTRONS
  conv_thr =   1.0d-16
  mixing_beta =   4.0d-01
/
ATOMIC_SPECIES
Mo     95.95 Mo.pz-spn-kjpaw_psl.0.2.UPF
Se     78.96 Se.pz-n-kjpaw_psl.0.2.UPF
ATOMIC_POSITIONS (crystal)
Mo            0.3333333300        0.6666666700        0.2500000000
Se            0.6666666700        0.3333333300        0.3327921562
Se            0.6666666700        0.3333333300        0.1672078438
K_POINTS automatic
20 20 1 0 0 0
CELL_PARAMETERS (angstrom)
   3.256540920   0.000000000   0.000000000
  -1.628270460   2.820247165   0.000000000
   0.000000000   0.000000000  20.075381765