phonon calculation.
&inputph
  prefix = 'hBN',
  tr2_ph = 1.0d-14
  ldisp = .true.  
  recover=.true.
  nq1 = 8, nq2 = 8, nq3 = 1
  fildyn = 'hBN.dyn'
/