&control
  calculation='scf',
  prefix='graphene',
  pseudo_dir = './',
  outdir='./',
  tprnfor = .true.
  tstress = .true.
/
&system
  ecutwfc = 100
  ibrav = 4
  a= 2.47809699657
  c= 20
  nat = 4
  ntyp = 1
  occupations = 'fixed'
  smearing = 'methfessel-paxton'
  input_dft = 'vdw-df'
  vdw_corr='dft-d'
/
&electrons
  conv_thr = 1.0000000000d-16
  mixing_beta = 0.3
/
ATOMIC_SPECIES
C 12.0107 C.upf

ATOMIC_POSITIONS (crystal)
C             0.0000000000        0.0000000000        0.4193961300
C             0.0000000000        0.0000000000        0.5806038700
C             0.3333333300        0.6666666700        0.4193687000
C             0.6666666700        0.3333333300        0.5806313000
K_POINTS automatic
20 20 1 0 0 0
