&CONTROL
  calculation = 'scf'
  prefix = 'MoSe2'
  pseudo_dir = './'
  tprnfor = .true.
  tstress = .true.
/
&SYSTEM
  ecutwfc =   100
  ibrav = 0
  nat = 6
  ntyp = 2
  occupations = 'fixed'
  smearing = 'cold'
  degauss     =  1.00000e-02
/
&ELECTRONS
  conv_thr =   1.0d-14
/
ATOMIC_SPECIES
Mo     95.95 mo_pbe_v1.uspp.F.UPF
Se     78.96 se_pbe_v1.uspp.F.UPF
ATOMIC_POSITIONS (crystal)
Mo            0.6666666700        0.3333333300        0.7500000000
Mo            0.3333333300        0.6666666700        0.2500000000
Se            0.3333333300        0.6666666700        0.8606473571
Se            0.6666666700        0.3333333300        0.3606473571
Se            0.3333333300        0.6666666700        0.6393526429
Se            0.6666666700        0.3333333300        0.1393526429
K_POINTS automatic
16 16 16 0 0 0
CELL_PARAMETERS (angstrom)
   3.318978165   0.000000000   0.000000000
  -1.659489082   2.874319405   0.000000000
   0.000000000   0.000000000  15.082539141