&CONTROL
  calculation = 'scf'
  prefix = 'MoS2'
  pseudo_dir = './'
  tprnfor = .true.
  tstress = .true.
/
&SYSTEM
  ecutwfc =   150
  ibrav = 0
  nat = 3
  ntyp = 2
  occupations = 'fixed'
  smearing = 'cold'
  degauss     =  1.00000e-02
/
&ELECTRONS
  conv_thr =   1.0d-18
  mixing_beta =   4.0d-01
/
ATOMIC_SPECIES
Mo     95.95  Mo.pz-spn-kjpaw_psl.0.2.UPF
S      32.065 S.pz-n-kjpaw_psl.0.1.UPF
ATOMIC_POSITIONS (crystal)
Mo            0.3333333300        0.6666666700        0.2500000000
S             0.6666666700        0.3333333300        0.3275972336
S             0.6666666700        0.3333333300        0.1724027664
K_POINTS automatic
20 20 1 0 0 0
CELL_PARAMETERS (angstrom)
   3.128723716   0.000000000   0.000000000
  -1.564361858   2.709554220   0.000000000
   0.000000000   0.000000000  20.071691277