&CONTROL
  calculation = 'scf'
  prefix = 'MoSe2'
  pseudo_dir = './'
  tprnfor = .true.
  tstress = .true.
/
&SYSTEM
  ecutwfc =   120
  ibrav = 0
  nat = 3
  ntyp = 2
  occupations = 'fixed'
  smearing = 'cold'
  degauss     =  1.00000e-02
/
&ELECTRONS
  conv_thr =   1.0d-16
/
ATOMIC_SPECIES
Mo     95.95 Mo.upf
Se     78.96 Se.upf
ATOMIC_POSITIONS (crystal)
Mo            0.3333333300        0.6666666700        0.2500000000
Se            0.6666666700        0.3333333300        0.3328362305
Se            0.6666666700        0.3333333300        0.1671637695
K_POINTS automatic
20 20 1 0 0 0
CELL_PARAMETERS (angstrom)
   3.269976198   0.000000000   0.000000000
  -1.634988099   2.831882456   0.000000000
   0.000000000   0.000000000  20.080283444