phonon calculation.
&inputph
  prefix = 'NaF',
  tr2_ph = 1.0d-14
  ldisp = .true.  
  epsil = .true.
  recover=.true.
  nq1 = 3, nq2 = 3, nq3 = 3
  fildyn = 'NaF.dyn'
/