  &input
  fildyn = 'MoS2.dyn'
  zasr = 'simple'
  flfrc = 'espresso.ifc2'
/