  &input
  fildyn = 'graphite.dyn'
  zasr = 'crystal'
  flfrc = 'mat2R'
/
