  &input
  fildyn = 'hBN.dyn'
  zasr = 'crystal'
  flfrc = 'mat2R'
/