phonon calculation.
&inputph
  prefix = 'LiH',
  tr2_ph = 1.0d-14
  ldisp = .true.  
  epsil = .true.
  recover=.true.
  nq1 = 2, nq2 = 2, nq3 = 2
  fildyn = 'LiH.dyn'
/