  &input
  fildyn = 'LiH.dyn'
  zasr = 'crystal'
  flfrc = 'espresso.ifc2'
/